# Solution for model qis_1000_800_323
# Objective value = 3.0270325946905984e+02
x[0] 1
x[1] 0
x[2] 0
x[3] 1
x[4] 1
x[5] 0
x[6] 0
x[7] 0
x[8] 0
x[9] 0
x[10] 0
x[11] 1
x[12] 0
x[13] 1
x[14] 1
x[15] 1
x[16] 1
x[17] 0
x[18] 1
x[19] 1
x[20] 1
x[21] 0
x[22] 0
x[23] 0
x[24] 1
x[25] 0
x[26] 1
x[27] 0
x[28] 0
x[29] 1
x[30] 0
x[31] 1
x[32] 0
x[33] 0
x[34] 0
x[35] 1
x[36] 1
x[37] 0
x[38] 0
x[39] 0
x[40] 1
x[41] 1
x[42] 0
x[43] 1
x[44] 1
x[45] 0
x[46] 0
x[47] 1
x[48] 0
x[49] 0
x[50] 0
x[51] 0
x[52] 1
x[53] 1
x[54] 1
x[55] 1
x[56] 1
x[57] 0
x[58] 1
x[59] 1
x[60] 0
x[61] 0
x[62] 0
x[63] 0
x[64] 1
x[65] 0
x[66] 0
x[67] 1
x[68] 1
x[69] 0
x[70] 0
x[71] 0
x[72] 0
x[73] 0
x[74] 1
x[75] 1
x[76] 1
x[77] 1
x[78] 1
x[79] 1
x[80] 0
x[81] 1
x[82] 1
x[83] 1
x[84] 0
x[85] 1
x[86] 0
x[87] 0
x[88] 1
x[89] 1
x[90] 0
x[91] 0
x[92] 1
x[93] 0
x[94] 0
x[95] 0
x[96] 1
x[97] 0
x[98] 0
x[99] 1
x[100] 1
x[101] 0
x[102] 0
x[103] 0
x[104] 0
x[105] 0
x[106] 1
x[107] 0
x[108] 1
x[109] 0
x[110] 1
x[111] 0
x[112] 1
x[113] 0
x[114] 0
x[115] 1
x[116] 0
x[117] 0
x[118] 1
x[119] 0
x[120] 1
x[121] 0
x[122] 1
x[123] 0
x[124] 0
x[125] 0
x[126] 0
x[127] 1
x[128] 0
x[129] 1
x[130] 0
x[131] 0
x[132] 0
x[133] 1
x[134] 0
x[135] 0
x[136] 0
x[137] 1
x[138] 1
x[139] 1
x[140] 0
x[141] 0
x[142] 1
x[143] 1
x[144] 1
x[145] 1
x[146] 1
x[147] 1
x[148] 1
x[149] 0
x[150] 0
x[151] 1
x[152] 1
x[153] 1
x[154] 0
x[155] 1
x[156] 0
x[157] 0
x[158] 0
x[159] 0
x[160] 1
x[161] 0
x[162] 0
x[163] 0
x[164] 1
x[165] 1
x[166] 0
x[167] 1
x[168] 0
x[169] 1
x[170] 1
x[171] 1
x[172] 0
x[173] 0
x[174] 1
x[175] 0
x[176] 1
x[177] 1
x[178] 0
x[179] 1
x[180] 1
x[181] 1
x[182] 0
x[183] 1
x[184] 1
x[185] 0
x[186] 1
x[187] 1
x[188] 0
x[189] 0
x[190] 1
x[191] 1
x[192] 1
x[193] 0
x[194] 0
x[195] 1
x[196] 0
x[197] 1
x[198] 1
x[199] 0
x[200] 1
x[201] 0
x[202] 0
x[203] 0
x[204] 1
x[205] 1
x[206] 1
x[207] 1
x[208] 0
x[209] 0
x[210] 1
x[211] 0
x[212] 1
x[213] 0
x[214] 0
x[215] 1
x[216] 0
x[217] 0
x[218] 0
x[219] 1
x[220] 1
x[221] 1
x[222] 1
x[223] 1
x[224] 0
x[225] 1
x[226] 0
x[227] 1
x[228] 0
x[229] 1
x[230] 0
x[231] 1
x[232] 0
x[233] 1
x[234] 1
x[235] 1
x[236] 0
x[237] 0
x[238] 1
x[239] 0
x[240] 0
x[241] 1
x[242] 0
x[243] 1
x[244] 1
x[245] 1
x[246] 0
x[247] 0
x[248] 0
x[249] 1
x[250] 1
x[251] 1
x[252] 1
x[253] 0
x[254] 0
x[255] 1
x[256] 1
x[257] 0
x[258] 1
x[259] 0
x[260] 0
x[261] 0
x[262] 1
x[263] 1
x[264] 0
x[265] 1
x[266] 1
x[267] 0
x[268] 1
x[269] 1
x[270] 1
x[271] 1
x[272] 0
x[273] 0
x[274] 0
x[275] 1
x[276] 1
x[277] 0
x[278] 0
x[279] 1
x[280] 1
x[281] 1
x[282] 0
x[283] 1
x[284] 1
x[285] 0
x[286] 1
x[287] 1
x[288] 1
x[289] 0
x[290] 0
x[291] 1
x[292] 1
x[293] 0
x[294] 0
x[295] 1
x[296] 0
x[297] 0
x[298] 1
x[299] 0
x[300] 1
x[301] 1
x[302] 1
x[303] 0
x[304] 0
x[305] 1
x[306] 0
x[307] 1
x[308] 0
x[309] 1
x[310] 1
x[311] 0
x[312] 1
x[313] 1
x[314] 0
x[315] 0
x[316] 0
x[317] 1
x[318] 0
x[319] 1
x[320] 0
x[321] 1
x[322] 1
x[323] 1
x[324] 0
x[325] 1
x[326] 0
x[327] 1
x[328] 1
x[329] 0
x[330] 0
x[331] 0
x[332] 0
x[333] 1
x[334] 1
x[335] 1
x[336] 1
x[337] 0
x[338] 0
x[339] 1
x[340] 1
x[341] 1
x[342] 1
x[343] 1
x[344] 0
x[345] 1
x[346] 1
x[347] 0
x[348] 0
x[349] 1
x[350] 0
x[351] 0
x[352] 1
x[353] 1
x[354] 0
x[355] 0
x[356] 0
x[357] 0
x[358] 0
x[359] 1
x[360] 0
x[361] 0
x[362] 1
x[363] 1
x[364] 1
x[365] 0
x[366] 0
x[367] 1
x[368] 1
x[369] 0
x[370] 0
x[371] 0
x[372] 0
x[373] 1
x[374] 1
x[375] 0
x[376] 0
x[377] 0
x[378] 0
x[379] 0
x[380] 0
x[381] 0
x[382] 1
x[383] 1
x[384] 0
x[385] 0
x[386] 1
x[387] 0
x[388] 0
x[389] 0
x[390] 0
x[391] 0
x[392] 0
x[393] 1
x[394] 1
x[395] 0
x[396] 0
x[397] 1
x[398] 0
x[399] 0
x[400] 1
x[401] 1
x[402] 1
x[403] 0
x[404] 1
x[405] 0
x[406] 0
x[407] 1
x[408] 1
x[409] 0
x[410] 1
x[411] 1
x[412] 1
x[413] 1
x[414] 1
x[415] 0
x[416] 1
x[417] 0
x[418] 1
x[419] 1
x[420] 0
x[421] 1
x[422] 0
x[423] 1
x[424] 1
x[425] 0
x[426] 0
x[427] 1
x[428] 1
x[429] 1
x[430] 0
x[431] 0
x[432] 0
x[433] 0
x[434] 1
x[435] 0
x[436] 0
x[437] 0
x[438] 0
x[439] 1
x[440] 0
x[441] 1
x[442] 1
x[443] 1
x[444] 1
x[445] 0
x[446] 0
x[447] 0
x[448] 0
x[449] 0
x[450] 0
x[451] 0
x[452] 0
x[453] 0
x[454] 1
x[455] 1
x[456] 0
x[457] 1
x[458] 0
x[459] 0
x[460] 1
x[461] 1
x[462] 0
x[463] 0
x[464] 0
x[465] 0
x[466] 0
x[467] 0
x[468] 0
x[469] 0
x[470] 1
x[471] 1
x[472] 0
x[473] 1
x[474] 1
x[475] 1
x[476] 0
x[477] 0
x[478] 1
x[479] 1
x[480] 1
x[481] 1
x[482] 0
x[483] 1
x[484] 1
x[485] 1
x[486] 0
x[487] 0
x[488] 0
x[489] 0
x[490] 0
x[491] 0
x[492] 0
x[493] 0
x[494] 0
x[495] 0
x[496] 0
x[497] 0
x[498] 1
x[499] 1
x[500] 1
x[501] 1
x[502] 0
x[503] 1
x[504] 1
x[505] 0
x[506] 1
x[507] 0
x[508] 1
x[509] 1
x[510] 0
x[511] 1
x[512] 1
x[513] 0
x[514] 0
x[515] 1
x[516] 0
x[517] 0
x[518] 1
x[519] 1
x[520] 1
x[521] 1
x[522] 1
x[523] 0
x[524] 0
x[525] 1
x[526] 1
x[527] 1
x[528] 1
x[529] 0
x[530] 0
x[531] 0
x[532] 0
x[533] 0
x[534] 0
x[535] 1
x[536] 0
x[537] 1
x[538] 0
x[539] 0
x[540] 0
x[541] 1
x[542] 1
x[543] 1
x[544] 0
x[545] 1
x[546] 1
x[547] 0
x[548] 0
x[549] 0
x[550] 1
x[551] 1
x[552] 1
x[553] 0
x[554] 0
x[555] 1
x[556] 1
x[557] 1
x[558] 0
x[559] 1
x[560] 1
x[561] 0
x[562] 0
x[563] 1
x[564] 0
x[565] 1
x[566] 0
x[567] 1
x[568] 0
x[569] 0
x[570] 1
x[571] 0
x[572] 0
x[573] 1
x[574] 0
x[575] 0
x[576] 0
x[577] 1
x[578] 0
x[579] 0
x[580] 0
x[581] 1
x[582] 1
x[583] 0
x[584] 0
x[585] 1
x[586] 0
x[587] 0
x[588] 0
x[589] 0
x[590] 0
x[591] 0
x[592] 0
x[593] 1
x[594] 0
x[595] 0
x[596] 1
x[597] 0
x[598] 1
x[599] 0
x[600] 0
x[601] 1
x[602] 0
x[603] 0
x[604] 1
x[605] 0
x[606] 1
x[607] 1
x[608] 0
x[609] 1
x[610] 1
x[611] 0
x[612] 1
x[613] 0
x[614] 1
x[615] 1
x[616] 0
x[617] 1
x[618] 0
x[619] 1
x[620] 1
x[621] 1
x[622] 1
x[623] 1
x[624] 0
x[625] 1
x[626] 0
x[627] 0
x[628] 1
x[629] 0
x[630] 1
x[631] 1
x[632] 0
x[633] 0
x[634] 0
x[635] 0
x[636] 0
x[637] 1
x[638] 1
x[639] 0
x[640] 1
x[641] 1
x[642] 1
x[643] 0
x[644] 1
x[645] 0
x[646] 0
x[647] 1
x[648] 0
x[649] 1
x[650] 0
x[651] 0
x[652] 0
x[653] 0
x[654] 1
x[655] 1
x[656] 0
x[657] 1
x[658] 1
x[659] 1
x[660] 0
x[661] 1
x[662] 1
x[663] 0
x[664] 0
x[665] 0
x[666] 1
x[667] 0
x[668] 0
x[669] 1
x[670] 0
x[671] 0
x[672] 1
x[673] 0
x[674] 0
x[675] 0
x[676] 0
x[677] 1
x[678] 0
x[679] 0
x[680] 1
x[681] 0
x[682] 1
x[683] 0
x[684] 0
x[685] 1
x[686] 1
x[687] 0
x[688] 0
x[689] 1
x[690] 0
x[691] 1
x[692] 0
x[693] 0
x[694] 1
x[695] 1
x[696] 0
x[697] 1
x[698] 0
x[699] 1
x[700] 1
x[701] 0
x[702] 0
x[703] 1
x[704] 1
x[705] 0
x[706] 0
x[707] 1
x[708] 1
x[709] 0
x[710] 1
x[711] 0
x[712] 1
x[713] 0
x[714] 0
x[715] 0
x[716] 0
x[717] 1
x[718] 0
x[719] 0
x[720] 1
x[721] 0
x[722] 1
x[723] 0
x[724] 0
x[725] 0
x[726] 1
x[727] 1
x[728] 1
x[729] 1
x[730] 1
x[731] 1
x[732] 1
x[733] 0
x[734] 0
x[735] 1
x[736] 0
x[737] 1
x[738] 1
x[739] 0
x[740] 1
x[741] 1
x[742] 1
x[743] 1
x[744] 1
x[745] 1
x[746] 0
x[747] 1
x[748] 1
x[749] 0
x[750] 1
x[751] 1
x[752] 0
x[753] 1
x[754] 1
x[755] 1
x[756] 1
x[757] 0
x[758] 0
x[759] 0
x[760] 0
x[761] 1
x[762] 1
x[763] 0
x[764] 1
x[765] 1
x[766] 0
x[767] 0
x[768] 1
x[769] 1
x[770] 1
x[771] 1
x[772] 0
x[773] 0
x[774] 1
x[775] 1
x[776] 0
x[777] 0
x[778] 1
x[779] 0
x[780] 0
x[781] 1
x[782] 0
x[783] 0
x[784] 1
x[785] 0
x[786] 0
x[787] 1
x[788] 1
x[789] 1
x[790] 1
x[791] 1
x[792] 1
x[793] 0
x[794] 1
x[795] 1
x[796] 0
x[797] 1
x[798] 0
x[799] 0
x[800] 1
x[801] 0
x[802] 0
x[803] 0
x[804] 1
x[805] 0
x[806] 0
x[807] 1
x[808] 1
x[809] 1
x[810] 0
x[811] 0
x[812] 0
x[813] 0
x[814] 0
x[815] 0
x[816] 1
x[817] 0
x[818] 1
x[819] 1
x[820] 0
x[821] 0
x[822] 1
x[823] 0
x[824] 1
x[825] 0
x[826] 0
x[827] 0
x[828] 1
x[829] 0
x[830] 1
x[831] 0
x[832] 1
x[833] 0
x[834] 0
x[835] 1
x[836] 1
x[837] 1
x[838] 0
x[839] 1
x[840] 0
x[841] 1
x[842] 1
x[843] 0
x[844] 0
x[845] 0
x[846] 0
x[847] 0
x[848] 1
x[849] 0
x[850] 0
x[851] 1
x[852] 0
x[853] 1
x[854] 0
x[855] 0
x[856] 0
x[857] 0
x[858] 0
x[859] 0
x[860] 1
x[861] 0
x[862] 1
x[863] 1
x[864] 1
x[865] 1
x[866] 0
x[867] 0
x[868] 0
x[869] 0
x[870] 0
x[871] 1
x[872] 1
x[873] 1
x[874] 1
x[875] 1
x[876] 1
x[877] 1
x[878] 1
x[879] 0
x[880] 0
x[881] 1
x[882] 0
x[883] 1
x[884] 0
x[885] 0
x[886] 0
x[887] 0
x[888] 1
x[889] 1
x[890] 1
x[891] 0
x[892] 0
x[893] 0
x[894] 1
x[895] 0
x[896] 0
x[897] 0
x[898] 1
x[899] 1
x[900] 0
x[901] 0
x[902] 1
x[903] 1
x[904] 0
x[905] 0
x[906] 1
x[907] 1
x[908] 1
x[909] 1
x[910] 0
x[911] 1
x[912] 1
x[913] 1
x[914] 1
x[915] 0
x[916] 1
x[917] 0
x[918] 1
x[919] 0
x[920] 0
x[921] 1
x[922] 0
x[923] 0
x[924] 1
x[925] 1
x[926] 1
x[927] 0
x[928] 1
x[929] 0
x[930] 0
x[931] 0
x[932] 0
x[933] 0
x[934] 1
x[935] 1
x[936] 1
x[937] 1
x[938] 1
x[939] 1
x[940] 1
x[941] 1
x[942] 0
x[943] 0
x[944] 0
x[945] 1
x[946] 0
x[947] 1
x[948] 1
x[949] 0
x[950] 1
x[951] 1
x[952] 1
x[953] 0
x[954] 0
x[955] 0
x[956] 0
x[957] 1
x[958] 0
x[959] 0
x[960] 0
x[961] 0
x[962] 1
x[963] 0
x[964] 1
x[965] 0
x[966] 0
x[967] 1
x[968] 0
x[969] 0
x[970] 1
x[971] 0
x[972] 0
x[973] 0
x[974] 1
x[975] 1
x[976] 0
x[977] 0
x[978] 0
x[979] 0
x[980] 1
x[981] 1
x[982] 1
x[983] 1
x[984] 0
x[985] 1
x[986] 0
x[987] 1
x[988] 1
x[989] 0
x[990] 0
x[991] 1
x[992] 0
x[993] 1
x[994] 1
x[995] 0
x[996] 1
x[997] 0
x[998] 1
x[999] 1
